
Gurobi 9.5.2 (win64) logging started Mon Mar 27 20:28:34 2023

Set parameter LogFile to value "2023-03-27_20hr-25min-09sec/Nodes40_Arcs65_LocNodes30/Formulation-2Instance-3.log"
Set parameter TimeLimit to value 600
Set parameter IntFeasTol to value 1e-09
Set parameter DualReductions to value 0
Set parameter NonConvex to value 2
Gurobi Optimizer version 9.5.2 build v9.5.2rc0 (win64)
Thread count: 4 physical cores, 8 logical processors, using up to 8 threads
Optimize a model with 176 rows, 310 columns and 670 nonzeros
Model fingerprint: 0x69d6e01e
Model has 105 quadratic objective terms
Model has 105 SOS constraints
Variable types: 280 continuous, 30 integer (30 binary)
Coefficient statistics:
  Matrix range     [1e-02, 2e+02]
  Objective range  [1e-01, 1e+03]
  QObjective range [2e-02, 8e+00]
  Bounds range     [1e+00, 1e+00]
  RHS range        [1e-01, 3e+03]
Presolve removed 7 rows and 7 columns
Presolve time: 0.00s
Presolved: 169 rows, 303 columns, 663 nonzeros
Presolved model has 105 SOS constraint(s)
Presolved model has 105 quadratic objective terms
Variable types: 273 continuous, 30 integer (30 binary)

Root relaxation: objective 9.266301e+05, 392 iterations, 0.01 seconds (0.00 work units)

    Nodes    |    Current Node    |     Objective Bounds      |     Work
 Expl Unexpl |  Obj  Depth IntInf | Incumbent    BestBd   Gap | It/Node Time

     0     0 926630.066    0   16          - 926630.066      -     -    0s
H    0     0                    913157.42943 926630.066  1.48%     -    0s
H    0     0                    918337.85507 926630.066  0.90%     -    0s
     0     0 926417.507    0   20 918337.855 926417.507  0.88%     -    0s
H    0     0                    924337.65840 926417.507  0.23%     -    0s
H    0     0                    924406.16410 926417.507  0.22%     -    0s
     0     0 925548.973    0   19 924406.164 925548.973  0.12%     -    0s
     0     0 925522.044    0   19 924406.164 925522.044  0.12%     -    0s
     0     0 925513.901    0   19 924406.164 925513.901  0.12%     -    0s
     0     0 925513.901    0   12 924406.164 925513.901  0.12%     -    0s
     0     0 925513.901    0   10 924406.164 925513.901  0.12%     -    0s
     0     0 925513.901    0   10 924406.164 925513.901  0.12%     -    0s
     0     0 925513.901    0   35 924406.164 925513.901  0.12%     -    0s
     0     0 925513.901    0   37 924406.164 925513.901  0.12%     -    0s
     0     0 925513.901    0   37 924406.164 925513.901  0.12%     -    0s
     0     0 925513.901    0   35 924406.164 925513.901  0.12%     -    0s
     0     0 925371.023    0   35 924406.164 925371.023  0.10%     -    0s
     0     0 925248.121    0   36 924406.164 925248.121  0.09%     -    0s
     0     0 925140.574    0   11 924406.164 925140.574  0.08%     -    0s
     0     0 925140.574    0   17 924406.164 925140.574  0.08%     -    0s
     0     0 924929.545    0   19 924406.164 924929.545  0.06%     -    0s
     0     0 924514.603    0   17 924406.164 924514.603  0.01%     -    0s

Cutting planes:
  Cover: 2
  Implied bound: 2
  MIR: 2
  Flow cover: 10

Explored 1 nodes (1254 simplex iterations) in 0.52 seconds (0.07 work units)
Thread count was 8 (of 8 available processors)

Solution count 5: 924406 924338 918338 ... 913157

Optimal solution found (tolerance 1.00e-04)
Best objective 9.244061641016e+05, best bound 9.244921625756e+05, gap 0.0093%

User-callback calls 452, time in user-callback 0.01 sec
